succeed=True
[CUDA] cuda: usage: 5.33 GB
0 :  {link #0 : 1}, {link #1 : 2}, {link #2 : 3},
1 :  {link #0 : 2}, {link #1 : 3}, {link #2 : 0},
2 :  {link #0 : 3}, {link #1 : 0}, {link #2 : 1},
3 :  {link #0 : 0}, {link #1 : 1}, {link #2 : 2},
0 :  {link #0 : 1}, {link #1 : 2}, {link #2 : 3},
1 :  {link #0 : 2}, {link #1 : 3}, {link #2 : 0},
2 :  {link #0 : 3}, {link #1 : 0}, {link #2 : 1},
3 :  {link #0 : 0}, {link #1 : 1}, {link #2 : 2},
0 :  {link #0 : 1}, {link #1 : 2}, {link #2 : 3},
1 :  {link #0 : 2}, {link #1 : 3}, {link #2 : 0},
2 :  {link #0 : 3}, {link #1 : 0}, {link #2 : 1},
3 :  {link #0 : 0}, {link #1 : 1}, {link #2 : 2},
0 : local 80, cpu 0 {link #0 : g1 0}, {link #1 : g2 0}, {link #2 : g3 0},
1 : local 80, cpu 0 {link #0 : g2 0}, {link #1 : g3 0}, {link #2 : g0 0},
2 : local 80, cpu 0 {link #0 : g3 0}, {link #1 : g0 0}, {link #2 : g1 0},
3 : local 80, cpu 0 {link #0 : g0 0}, {link #1 : g1 0}, {link #2 : g2 0},
0 : local 80, cpu 0 {link #0 : g1 0}, {link #1 : g2 0}, {link #2 : g3 0},
1 : local 80, cpu 0 {link #0 : g2 0}, {link #1 : g3 0}, {link #2 : g0 0},
2 : local 80, cpu 0 {link #0 : g3 0}, {link #1 : g0 0}, {link #2 : g1 0},
3 : local 80, cpu 0 {link #0 : g0 0}, {link #1 : g1 0}, {link #2 : g2 0},
0 : local 80, cpu 0 {link #0 : g1 0}, {link #1 : g2 0}, {link #2 : g3 0},
1 : local 80, cpu 0 {link #0 : g2 0}, {link #1 : g3 0}, {link #2 : g0 0},
2 : local 80, cpu 0 {link #0 : g3 0}, {link #1 : g0 0}, {link #2 : g1 0},
3 : local 80, cpu 0 {link #0 : g0 0}, {link #1 : g1 0}, {link #2 : g2 0},
0 :  {link #0 : 1}, {link #1 : 2}, {link #2 : 3},
1 :  {link #0 : 2}, {link #1 : 3}, {link #2 : 0},
2 :  {link #0 : 3}, {link #1 : 0}, {link #2 : 1},
3 :  {link #0 : 0}, {link #1 : 1}, {link #2 : 2},
0 : local 80, cpu 0 {link #0 : g1 0}, {link #1 : g2 0}, {link #2 : g3 0},
1 : local 80, cpu 0 {link #0 : g2 0}, {link #1 : g3 0}, {link #2 : g0 0},
2 : local 80, cpu 0 {link #0 : g3 0}, {link #1 : g0 0}, {link #2 : g1 0},
3 : local 80, cpu 0 {link #0 : g0 0}, {link #1 : g1 0}, {link #2 : g2 0},
Set parameter WLSAccessID
Set parameter WLSSecret
Set parameter LicenseID
Set parameter TimeLimit to value 200
Set parameter MIPGap to value 0.05
Set parameter LogFile to value "cppsolver.log"
Set parameter Threads to value 40
Academic license - for non-commercial use only - registered to xiaoniu.sxn@sjtu.edu.cn
Gurobi Optimizer version 9.5.1 build v9.5.1rc2 (linux64)
Thread count: 40 physical cores, 80 logical processors, using up to 40 threads
Academic license - for non-commercial use only - registered to xiaoniu.sxn@sjtu.edu.cn
Optimize a model with 12192 rows, 3983 columns and 32784 nonzeros
Model fingerprint: 0x2cae9eec
Variable types: 5 continuous, 3978 integer (3978 binary)
Coefficient statistics:
  Matrix range     [8e-09, 1e+03]
  Objective range  [1e+00, 1e+00]
  Bounds range     [1e+00, 1e+00]
  RHS range        [1e+00, 3e+02]
Found heuristic solution: objective 13043.209274
Presolve removed 8651 rows and 238 columns
Presolve time: 0.04s
Presolved: 3541 rows, 3745 columns, 14269 nonzeros
Found heuristic solution: objective 13043.209273
Variable types: 5 continuous, 3740 integer (3740 binary)

Root relaxation: objective 4.467098e+03, 2873 iterations, 0.03 seconds (0.02 work units)

    Nodes    |    Current Node    |     Objective Bounds      |     Work
 Expl Unexpl |  Obj  Depth IntInf | Incumbent    BestBd   Gap | It/Node Time

     0     0 4467.09807    0   25 13043.2093 4467.09807  65.8%     -    0s
H    0     0                    4515.7691279 4467.09807  1.08%     -    0s

Explored 1 nodes (4351 simplex iterations) in 0.13 seconds (0.09 work units)
Thread count was 40 (of 80 available processors)

Solution count 3: 4515.77 13043.2 13043.2 

Optimal solution found (tolerance 5.00e-02)
Best objective 4.515769127940e+03, best bound 4.467098074174e+03, gap 1.0778%
coll_cache:optimal_local_rate=0.179365,0.172724,0.17851,0.17905,
coll_cache:optimal_remote_rate=0.524849,0.53149,0.525705,0.525164,
coll_cache:optimal_cpu_rate=0.295786,0.295786,0.295786,0.295786,
z=4515.77
test_result:init:feat_nbytes=67182966784
test_result:init:cache_nbytes=2754501632
test_result:init:feat_nbytes=67182966784
test_result:init:cache_nbytes=2754501632
test_result:init:feat_nbytes=67182966784
test_result:init:cache_nbytes=2754501632
test_result:init:feat_nbytes=67182966784
test_result:init:cache_nbytes=2754501632
    [Step(average) Profiler Level 1 E3 S123]
        L1  sample           0.003587 | send           0.000000
        L1  recv             0.000000 | copy           0.032693 | convert time 0.000000 | train  0.008910
        L1  feature nbytes    1.13 GB | label nbytes 0.00 Bytes
        L1  id nbytes      0.00 Bytes | graph nbytes 0.00 Bytes
        L1  miss nbytes    0.00 Bytes | remote nbytes 0.00 Bytes
        L1  num nodes               0 | num samples           0
        L1  seq duration     0.000000 | refresh duration   0.000000
    [Step(average) Profiler Level 2 E3 S123]
        L2  shuffle     0.000000 | core sample  0.000000 | id remap        0.000000
        L2  graph copy  0.000000 | id copy      0.000000 | cache feat copy 0.032693
        L2  last layer sample time 0.000000 | size 0.000000
    [Step(average) Profiler Level 3 E3 S123]
        L3  khop sample coo  0.000000 | khop sort coo      0.000000 | khop count edge     0.000000 | khop compact edge 0.000000
        L3  walk sample coo  0.000000 | walk topk total    0.000000 | walk topk step1     0.000000 | walk topk step2   0.000000
        L3  walk topk step3  0.000000 | walk topk step4    0.000000 | walk topk step5     0.000000
        L3  walk topk step6  0.000000 | walk topk step7    0.000000
        L3  remap unique     0.000000 | remap populate     0.000000 | remap mapnode       0.000000 | remap mapedge     0.000000
        L3  cache get_index  0.000809 | cache copy_index   0.000000 | cache extract_miss  0.000000
        L3  cache copy_miss  0.000000 | cache combine_miss 0.000000 | cache combine cache 0.031849 | cache combine remote 0.000000
        L3  label extract  0.000000
    [Profiler Level Percentiles E3 S123]
        p50.00_tail_logl2featcopy=0.032684
        p90.00_tail_logl2featcopy=0.033001
        p95.00_tail_logl2featcopy=0.033093
        p99.00_tail_logl2featcopy=0.041094
        p99.90_tail_logl2featcopy=0.042129
[CUDA] cuda: usage: 10.91 GB
Rank=1, Graph loaded.
!!!!Train_dataloader(with 31 items) enumerate latency: 0.524867057800293
!!!!Train_data_list(with 31 items) enumerate latency: 7.3909759521484375e-06, transfer latency: 0.45827460289001465
presamping
presamping takes 2.40814471244812
Rank=2, Graph loaded.
!!!!Train_dataloader(with 31 items) enumerate latency: 0.5371692180633545
!!!!Train_data_list(with 31 items) enumerate latency: 6.9141387939453125e-06, transfer latency: 0.45408010482788086
presamping
presamping takes 1.9842405319213867
Rank=3, Graph loaded.
!!!!Train_dataloader(with 31 items) enumerate latency: 0.5063934326171875
!!!!Train_data_list(with 31 items) enumerate latency: 7.3909759521484375e-06, transfer latency: 0.43253111839294434
presamping
presamping takes 2.2287039756774902
config:eval_tsp="2023-04-14 20:02:49"
config:num_worker=4
config:num_intra_size=4
config:root_dir=/nvme/songxiaoniu/graph-learning/wholegraph
config:graph_name=com-friendster
config:epochs=4
config:batchsize=8000
config:skip_epoch=2
config:local_step=250
config:presc_epoch=2
config:neighbors=10,25
config:hiddensize=256
config:num_layer=2
config:model=sage
config:framework=dgl
config:dataloaderworkers=0
config:dropout=0.5
config:lr=0.003
config:use_nccl=False
config:use_amp=True
config:use_collcache=True
config:cache_percentage=0.04
config:cache_policy=coll_cache_asymm_link
config:omp_thread_num=40
config:unsupervised=False
config:classnum=100
config:global_barrier=<multiprocessing.synchronize.Barrier object at 0x7f439194a430>
config:worker_id=0
creating_intra_node_communicator root=0, local_size=4, world_size=4
Rank=0, Graph loaded.
!!!!Train_dataloader(with 31 items) enumerate latency: 0.5155215263366699
!!!!Train_data_list(with 31 items) enumerate latency: 6.198883056640625e-06, transfer latency: 0.4270904064178467
epoch=4 total_steps=124
presamping
presamping takes 2.297281503677368
start training...
[Epoch 0], time=2.6602861881256104, loss=4.427171230316162
[Epoch 1], time=1.402268409729004, loss=4.243779182434082
[Epoch 2], time=1.4029216766357422, loss=4.061141014099121
[Epoch 3], time=1.4028863906860352, loss=3.879349946975708
|===========================================================================|
|                  PyTorch CUDA memory summary, device ID 0                 |
|---------------------------------------------------------------------------|
|            CUDA OOMs: 0            |        cudaMalloc retries: 0         |
|===========================================================================|
|        Metric         | Cur Usage  | Peak Usage | Tot Alloc  | Tot Freed  |
|---------------------------------------------------------------------------|
| Allocated memory      |   74654 KB |  753231 KB |  202302 MB |  202229 MB |
|       from large pool |   67937 KB |  747049 KB |  200446 MB |  200380 MB |
|       from small pool |    6716 KB |    8779 KB |    1855 MB |    1848 MB |
|---------------------------------------------------------------------------|
| Active memory         |   74654 KB |  753231 KB |  202302 MB |  202229 MB |
|       from large pool |   67937 KB |  747049 KB |  200446 MB |  200380 MB |
|       from small pool |    6716 KB |    8779 KB |    1855 MB |    1848 MB |
|---------------------------------------------------------------------------|
| GPU reserved memory   |    1360 MB |    1360 MB |    1360 MB |       0 B  |
|       from large pool |    1348 MB |    1348 MB |    1348 MB |       0 B  |
|       from small pool |      12 MB |      12 MB |      12 MB |       0 B  |
|---------------------------------------------------------------------------|
| Non-releasable memory |   33890 KB |    1214 MB |  186989 MB |  186956 MB |
|       from large pool |   30366 KB |    1211 MB |  185114 MB |  185084 MB |
|       from small pool |    3523 KB |       4 MB |    1874 MB |    1871 MB |
|---------------------------------------------------------------------------|
| Allocations           |      55    |      69    |   19703    |   19648    |
|       from large pool |      11    |      22    |    7142    |    7131    |
|       from small pool |      44    |      49    |   12561    |   12517    |
|---------------------------------------------------------------------------|
| Active allocs         |      55    |      69    |   19703    |   19648    |
|       from large pool |      11    |      22    |    7142    |    7131    |
|       from small pool |      44    |      49    |   12561    |   12517    |
|---------------------------------------------------------------------------|
| GPU reserved segments |      17    |      17    |      17    |       0    |
|       from large pool |      11    |      11    |      11    |       0    |
|       from small pool |       6    |       6    |       6    |       0    |
|---------------------------------------------------------------------------|
| Non-releasable allocs |      21    |      35    |    7761    |    7740    |
|       from large pool |       7    |      14    |    4132    |    4125    |
|       from small pool |      14    |      23    |    3629    |    3615    |
|---------------------------------------------------------------------------|
| Oversize allocations  |       0    |       0    |       0    |       0    |
|---------------------------------------------------------------------------|
| Oversize GPU segments |       0    |       0    |       0    |       0    |
|===========================================================================|

[TRAIN_TIME] train time is 6.869028 seconds
[EPOCH_TIME] 1.717257 seconds, maybe large due to not enough epoch skipped.
[EPOCH_TIME] 1.403018 seconds

